
Gurobi 8.1.1 (mac64, Python) logging started Tue Nov 23 19:33:04 2021

Academic license - for non-commercial use only
Changed value of parameter MIPGap to 0.001
   Prev: 0.0001  Min: 0.0  Max: 1e+100  Default: 0.0001
Optimize a model with 11618 rows, 68776 columns and 162850 nonzeros
Variable types: 54 continuous, 68722 integer (67408 binary)
Coefficient statistics:
  Matrix range     [1e-01, 1e+03]
  Objective range  [8e+00, 1e+02]
  Bounds range     [1e+00, 1e+00]
  RHS range        [1e-03, 2e+03]
Presolve removed 5594 rows and 63294 columns
Presolve time: 0.20s
Presolved: 6024 rows, 5482 columns, 32772 nonzeros
Variable types: 48 continuous, 5434 integer (5280 binary)

Root relaxation: objective 2.435039e+02, 380 iterations, 0.03 seconds

    Nodes    |    Current Node    |     Objective Bounds      |     Work
 Expl Unexpl |  Obj  Depth IntInf | Incumbent    BestBd   Gap | It/Node Time

     0     0  243.50393    0   61          -  243.50393      -     -    0s
     0     0  243.55935    0   63          -  243.55935      -     -    1s
     0     0  244.14310    0   84          -  244.14310      -     -    1s
     0     0  258.99197    0  117          -  258.99197      -     -    1s
     0     0  258.99197    0  113          -  258.99197      -     -    1s
     0     0  259.02005    0   94          -  259.02005      -     -    1s
     0     0  259.02005    0   97          -  259.02005      -     -    1s
     0     0  260.34792    0  132          -  260.34792      -     -    1s
     0     0  261.74658    0  126          -  261.74658      -     -    1s
     0     0  261.77394    0  131          -  261.77394      -     -    1s
     0     0  261.77394    0  132          -  261.77394      -     -    1s
     0     0  262.46952    0  110          -  262.46952      -     -    1s
     0     0  262.46952    0  105          -  262.46952      -     -    1s
     0     0  262.50775    0  112          -  262.50775      -     -    1s
     0     0  262.50924    0  111          -  262.50924      -     -    1s
     0     0  262.58606    0  115          -  262.58606      -     -    1s
     0     0  262.68053    0  112          -  262.68053      -     -    1s
     0     0  262.72777    0  111          -  262.72777      -     -    1s
     0     0  262.72777    0  118          -  262.72777      -     -    1s
     0     0  262.96330    0  110          -  262.96330      -     -    1s
     0     0  262.96330    0   72          -  262.96330      -     -    1s
     0     0  262.96411    0  131          -  262.96411      -     -    2s
     0     0  262.97797    0  138          -  262.97797      -     -    2s
     0     0  262.98113    0  156          -  262.98113      -     -    2s
     0     0  263.04849    0  114          -  263.04849      -     -    2s
     0     0  263.11412    0  122          -  263.11412      -     -    2s
     0     0  263.11412    0  123          -  263.11412      -     -    2s
H    0     0                     364.6822100  263.11412  27.9%     -    2s
     0     0  263.13723    0  102  364.68221  263.13723  27.8%     -    2s
H    0     0                     329.2030400  263.13723  20.1%     -    3s
H    0     0                     313.3692700  263.13723  16.0%     -    3s
     0     0  263.13809    0  108  313.36927  263.13809  16.0%     -    3s
     0     0  263.23154    0   66  313.36927  263.23154  16.0%     -    3s
     0     0  263.23154    0   79  313.36927  263.23154  16.0%     -    3s
     0     0  263.23154    0  100  313.36927  263.23154  16.0%     -    3s
     0     0  263.23154    0  101  313.36927  263.23154  16.0%     -    3s
     0     0  263.23154    0   29  313.36927  263.23154  16.0%     -    3s
     0     0  263.23154    0   90  313.36927  263.23154  16.0%     -    3s
     0     0  263.23154    0   55  313.36927  263.23154  16.0%     -    3s
     0     0  263.23154    0   49  313.36927  263.23154  16.0%     -    3s
     0     2  263.23154    0   49  313.36927  263.23154  16.0%     -    3s
H   73    61                     312.9259200  263.23154  15.9%  46.1    4s
*  103    69              29     284.9161600  263.37721  7.56%  45.7    4s
   216   116  266.44763    6  110  284.91616  263.85523  7.39%  51.0    5s
  2006   288  275.82978   11  118  284.91616  275.01860  3.47%  43.5   10s

Cutting planes:
  Learned: 1
  Gomory: 8
  Cover: 191
  Implied bound: 131
  Clique: 1
  MIR: 136
  StrongCG: 8
  Flow cover: 90
  GUB cover: 78
  Inf proof: 2
  Zero half: 12

Explored 2713 nodes (113334 simplex iterations) in 11.35 seconds
Thread count was 8 (of 8 available processors)

Solution count 5: 284.916 312.926 313.369 ... 364.682

Optimal solution found (tolerance 1.00e-03)
Best objective 2.849161600000e+02, best bound 2.849161600000e+02, gap 0.0000%

Gurobi 8.1.1 (mac64, Python) logging started Tue Nov 23 19:33:32 2021

Academic license - for non-commercial use only
Changed value of parameter MIPGap to 0.001
   Prev: 0.0001  Min: 0.0  Max: 1e+100  Default: 0.0001
Optimize a model with 11618 rows, 68776 columns and 162850 nonzeros
Variable types: 54 continuous, 68722 integer (67408 binary)
Coefficient statistics:
  Matrix range     [1e-01, 1e+03]
  Objective range  [8e+00, 1e+02]
  Bounds range     [1e+00, 1e+00]
  RHS range        [1e-03, 2e+03]
Presolve removed 5594 rows and 63294 columns
Presolve time: 0.19s
Presolved: 6024 rows, 5482 columns, 32772 nonzeros
Variable types: 48 continuous, 5434 integer (5280 binary)

Root relaxation: objective 2.435039e+02, 380 iterations, 0.02 seconds

    Nodes    |    Current Node    |     Objective Bounds      |     Work
 Expl Unexpl |  Obj  Depth IntInf | Incumbent    BestBd   Gap | It/Node Time

     0     0  243.50393    0   61          -  243.50393      -     -    0s
     0     0  243.55935    0   63          -  243.55935      -     -    1s
     0     0  244.14310    0   84          -  244.14310      -     -    1s
     0     0  258.99197    0  117          -  258.99197      -     -    1s
     0     0  258.99197    0  113          -  258.99197      -     -    1s
     0     0  259.02005    0   94          -  259.02005      -     -    1s
     0     0  259.02005    0   97          -  259.02005      -     -    1s
     0     0  260.34792    0  132          -  260.34792      -     -    1s
     0     0  261.74658    0  126          -  261.74658      -     -    1s
     0     0  261.77394    0  131          -  261.77394      -     -    1s
     0     0  261.77394    0  132          -  261.77394      -     -    1s
     0     0  262.46952    0  110          -  262.46952      -     -    1s
     0     0  262.46952    0  105          -  262.46952      -     -    1s
     0     0  262.50775    0  112          -  262.50775      -     -    1s
     0     0  262.50924    0  111          -  262.50924      -     -    1s
     0     0  262.58606    0  115          -  262.58606      -     -    1s
     0     0  262.68053    0  112          -  262.68053      -     -    1s
     0     0  262.72777    0  111          -  262.72777      -     -    1s
     0     0  262.72777    0  118          -  262.72777      -     -    1s
     0     0  262.96330    0  110          -  262.96330      -     -    1s
     0     0  262.96330    0   72          -  262.96330      -     -    1s
     0     0  262.96411    0  131          -  262.96411      -     -    1s
     0     0  262.97797    0  138          -  262.97797      -     -    2s
     0     0  262.98113    0  156          -  262.98113      -     -    2s
     0     0  263.04849    0  114          -  263.04849      -     -    2s
     0     0  263.11412    0  122          -  263.11412      -     -    2s
     0     0  263.11412    0  123          -  263.11412      -     -    2s
H    0     0                     364.6822100  263.11412  27.9%     -    2s
     0     0  263.13723    0  102  364.68221  263.13723  27.8%     -    2s
H    0     0                     329.2030400  263.13723  20.1%     -    3s
H    0     0                     313.3692700  263.13723  16.0%     -    3s
     0     0  263.13809    0  108  313.36927  263.13809  16.0%     -    3s
     0     0  263.23154    0   66  313.36927  263.23154  16.0%     -    3s
     0     0  263.23154    0   79  313.36927  263.23154  16.0%     -    3s
     0     0  263.23154    0  100  313.36927  263.23154  16.0%     -    3s
     0     0  263.23154    0  101  313.36927  263.23154  16.0%     -    3s
     0     0  263.23154    0   29  313.36927  263.23154  16.0%     -    3s
     0     0  263.23154    0   90  313.36927  263.23154  16.0%     -    3s
     0     0  263.23154    0   55  313.36927  263.23154  16.0%     -    3s
     0     0  263.23154    0   49  313.36927  263.23154  16.0%     -    3s
     0     2  263.23154    0   49  313.36927  263.23154  16.0%     -    4s
H   73    61                     312.9259200  263.23154  15.9%  46.1    4s
*  103    69              29     284.9161600  263.37721  7.56%  45.7    4s
   193   110  263.59410    4  131  284.91616  263.59410  7.48%  48.2    5s
  2006   288  275.82978   11  118  284.91616  275.01860  3.47%  43.5   10s

Cutting planes:
  Learned: 1
  Gomory: 8
  Cover: 191
  Implied bound: 131
  Clique: 1
  MIR: 136
  StrongCG: 8
  Flow cover: 90
  GUB cover: 78
  Inf proof: 2
  Zero half: 12

Explored 2713 nodes (113334 simplex iterations) in 11.60 seconds
Thread count was 8 (of 8 available processors)

Solution count 5: 284.916 312.926 313.369 ... 364.682

Optimal solution found (tolerance 1.00e-03)
Best objective 2.849161600000e+02, best bound 2.849161600000e+02, gap 0.0000%

Gurobi 8.1.1 (mac64, Python) logging started Tue Nov 23 19:37:02 2021

Academic license - for non-commercial use only

Gurobi 8.1.1 (mac64, Python) logging started Tue Nov 23 19:38:11 2021

Academic license - for non-commercial use only
Changed value of parameter MIPGap to 0.001
   Prev: 0.0001  Min: 0.0  Max: 1e+100  Default: 0.0001
Optimize a model with 1691 rows, 2670 columns and 4572 nonzeros
Variable types: 36 continuous, 2634 integer (1312 binary)
Coefficient statistics:
  Matrix range     [1e-01, 1e+03]
  Objective range  [8e+00, 1e+02]
  Bounds range     [1e+00, 1e+00]
  RHS range        [1e-03, 2e+03]
Presolve removed 1179 rows and 2316 columns
Presolve time: 0.01s
Presolved: 512 rows, 354 columns, 2404 nonzeros
Variable types: 32 continuous, 322 integer (160 binary)

Root relaxation: objective 2.435039e+02, 254 iterations, 0.00 seconds

    Nodes    |    Current Node    |     Objective Bounds      |     Work
 Expl Unexpl |  Obj  Depth IntInf | Incumbent    BestBd   Gap | It/Node Time

     0     0  243.50393    0   39          -  243.50393      -     -    0s
     0     0  243.55935    0   43          -  243.55935      -     -    0s
H    0     0                     316.7048600  243.55935  23.1%     -    0s
     0     0  246.97109    0   76  316.70486  246.97109  22.0%     -    0s
H    0     0                     312.9191700  246.97109  21.1%     -    0s
     0     0  262.08702    0   86  312.91917  262.08702  16.2%     -    0s
     0     0  262.09912    0   89  312.91917  262.09912  16.2%     -    0s
     0     0  262.10049    0   92  312.91917  262.10049  16.2%     -    0s
H    0     0                     311.7492900  262.10049  15.9%     -    0s
     0     0  262.25925    0   80  311.74929  262.25925  15.9%     -    0s
H    0     0                     300.8027600  262.25925  12.8%     -    0s
H    0     0                     293.2868900  262.25925  10.6%     -    0s
     0     0  262.33310    0   76  293.28689  262.33310  10.6%     -    0s
     0     0  262.33343    0   80  293.28689  262.33343  10.6%     -    0s
     0     0  262.81594    0   25  293.28689  262.81594  10.4%     -    0s
     0     0  262.81594    0   74  293.28689  262.81594  10.4%     -    0s
     0     0  262.81594    0   90  293.28689  262.81594  10.4%     -    0s
     0     0  262.91362    0  102  293.28689  262.91362  10.4%     -    0s
     0     0  262.91362    0  101  293.28689  262.91362  10.4%     -    0s
     0     0  262.95906    0   93  293.28689  262.95906  10.3%     -    0s
     0     0  262.96152    0   96  293.28689  262.96152  10.3%     -    0s
H    0     0                     284.9161600  262.96152  7.71%     -    0s
     0     0  262.98088    0  104  284.91616  262.98088  7.70%     -    0s
     0     0  262.98088    0  104  284.91616  262.98088  7.70%     -    0s
     0     0  262.98088    0   25  284.91616  262.98088  7.70%     -    0s
     0     0  262.98088    0   88  284.91616  262.98088  7.70%     -    0s
     0     0  262.98088    0   92  284.91616  262.98088  7.70%     -    0s
     0     0  263.09576    0   93  284.91616  263.09576  7.66%     -    0s
     0     0  263.09576    0   93  284.91616  263.09576  7.66%     -    0s
     0     0  263.09576    0   97  284.91616  263.09576  7.66%     -    0s
     0     0  263.09576    0   97  284.91616  263.09576  7.66%     -    0s
     0     0  263.13392    0  108  284.91616  263.13392  7.65%     -    0s
     0     0  263.14397    0  110  284.91616  263.14397  7.64%     -    0s
     0     0  263.15038    0   99  284.91616  263.15038  7.64%     -    0s
     0     0  263.15038    0   90  284.91616  263.15038  7.64%     -    0s
     0     2  263.15038    0   89  284.91616  263.15038  7.64%     -    0s

Cutting planes:
  Gomory: 2
  Cover: 7
  Implied bound: 4
  MIR: 53
  StrongCG: 3
  Flow cover: 36
  Inf proof: 1
  Zero half: 4
  Network: 2

Explored 1765 nodes (33959 simplex iterations) in 0.90 seconds
Thread count was 8 (of 8 available processors)

Solution count 6: 284.916 293.287 300.803 ... 316.705

Optimal solution found (tolerance 1.00e-03)
Best objective 2.849161600000e+02, best bound 2.849161600000e+02, gap 0.0000%

Gurobi 8.1.1 (mac64, Python) logging started Tue Nov 23 19:38:26 2021

Academic license - for non-commercial use only
Changed value of parameter MIPGap to 0.001
   Prev: 0.0001  Min: 0.0  Max: 1e+100  Default: 0.0001
Optimize a model with 1691 rows, 2670 columns and 4572 nonzeros
Variable types: 36 continuous, 2634 integer (1312 binary)
Coefficient statistics:
  Matrix range     [1e-01, 1e+03]
  Objective range  [8e+00, 1e+02]
  Bounds range     [1e+00, 1e+00]
  RHS range        [1e-03, 2e+03]
Presolve removed 1179 rows and 2316 columns
Presolve time: 0.01s
Presolved: 512 rows, 354 columns, 2404 nonzeros
Variable types: 32 continuous, 322 integer (160 binary)

Root relaxation: objective 2.435039e+02, 254 iterations, 0.00 seconds

    Nodes    |    Current Node    |     Objective Bounds      |     Work
 Expl Unexpl |  Obj  Depth IntInf | Incumbent    BestBd   Gap | It/Node Time

     0     0  243.50393    0   39          -  243.50393      -     -    0s
     0     0  243.55935    0   43          -  243.55935      -     -    0s
H    0     0                     316.7048600  243.55935  23.1%     -    0s
     0     0  246.97109    0   76  316.70486  246.97109  22.0%     -    0s
H    0     0                     312.9191700  246.97109  21.1%     -    0s
     0     0  262.08702    0   86  312.91917  262.08702  16.2%     -    0s
     0     0  262.09912    0   89  312.91917  262.09912  16.2%     -    0s
     0     0  262.10049    0   92  312.91917  262.10049  16.2%     -    0s
H    0     0                     311.7492900  262.10049  15.9%     -    0s
     0     0  262.25925    0   80  311.74929  262.25925  15.9%     -    0s
H    0     0                     300.8027600  262.25925  12.8%     -    0s
H    0     0                     293.2868900  262.25925  10.6%     -    0s
     0     0  262.33310    0   76  293.28689  262.33310  10.6%     -    0s
     0     0  262.33343    0   80  293.28689  262.33343  10.6%     -    0s
     0     0  262.81594    0   25  293.28689  262.81594  10.4%     -    0s
     0     0  262.81594    0   74  293.28689  262.81594  10.4%     -    0s
     0     0  262.81594    0   90  293.28689  262.81594  10.4%     -    0s
     0     0  262.91362    0  102  293.28689  262.91362  10.4%     -    0s
     0     0  262.91362    0  101  293.28689  262.91362  10.4%     -    0s
     0     0  262.95906    0   93  293.28689  262.95906  10.3%     -    0s
     0     0  262.96152    0   96  293.28689  262.96152  10.3%     -    0s
H    0     0                     284.9161600  262.96152  7.71%     -    0s
     0     0  262.98088    0  104  284.91616  262.98088  7.70%     -    0s
     0     0  262.98088    0  104  284.91616  262.98088  7.70%     -    0s
     0     0  262.98088    0   25  284.91616  262.98088  7.70%     -    0s
     0     0  262.98088    0   88  284.91616  262.98088  7.70%     -    0s
     0     0  262.98088    0   92  284.91616  262.98088  7.70%     -    0s
     0     0  263.09576    0   93  284.91616  263.09576  7.66%     -    0s
     0     0  263.09576    0   93  284.91616  263.09576  7.66%     -    0s
     0     0  263.09576    0   97  284.91616  263.09576  7.66%     -    0s
     0     0  263.09576    0   97  284.91616  263.09576  7.66%     -    0s
     0     0  263.13392    0  108  284.91616  263.13392  7.65%     -    0s
     0     0  263.14397    0  110  284.91616  263.14397  7.64%     -    0s
     0     0  263.15038    0   99  284.91616  263.15038  7.64%     -    0s
     0     0  263.15038    0   90  284.91616  263.15038  7.64%     -    0s
     0     2  263.15038    0   89  284.91616  263.15038  7.64%     -    0s

Cutting planes:
  Gomory: 2
  Cover: 7
  Implied bound: 4
  MIR: 53
  StrongCG: 3
  Flow cover: 36
  Inf proof: 1
  Zero half: 4
  Network: 2

Explored 1765 nodes (33959 simplex iterations) in 0.84 seconds
Thread count was 8 (of 8 available processors)

Solution count 6: 284.916 293.287 300.803 ... 316.705

Optimal solution found (tolerance 1.00e-03)
Best objective 2.849161600000e+02, best bound 2.849161600000e+02, gap 0.0000%

Gurobi 8.1.1 (mac64, Python) logging started Tue Nov 23 19:41:45 2021

Academic license - for non-commercial use only
Changed value of parameter MIPGap to 0.001
   Prev: 0.0001  Min: 0.0  Max: 1e+100  Default: 0.0001
Optimize a model with 1691 rows, 2670 columns and 4572 nonzeros
Variable types: 36 continuous, 2634 integer (1312 binary)
Coefficient statistics:
  Matrix range     [1e-01, 1e+03]
  Objective range  [8e+00, 1e+02]
  Bounds range     [1e+00, 1e+00]
  RHS range        [1e-03, 2e+03]
Presolve removed 1178 rows and 2308 columns
Presolve time: 0.01s
Presolved: 513 rows, 362 columns, 2420 nonzeros
Variable types: 32 continuous, 330 integer (160 binary)

Root relaxation: objective 1.321048e+02, 248 iterations, 0.00 seconds

    Nodes    |    Current Node    |     Objective Bounds      |     Work
 Expl Unexpl |  Obj  Depth IntInf | Incumbent    BestBd   Gap | It/Node Time

     0     0  132.10484    0   56          -  132.10484      -     -    0s
H    0     0                     359.1316900  132.10484  63.2%     -    0s
     0     0  140.13601    0   57  359.13169  140.13601  61.0%     -    0s
H    0     0                     192.5894500  140.13601  27.2%     -    0s
H    0     0                     189.1614800  140.13601  25.9%     -    0s
     0     0  151.01119    0   68  189.16148  151.01119  20.2%     -    0s
     0     0  151.01339    0   69  189.16148  151.01339  20.2%     -    0s
     0     0  155.36399    0   63  189.16148  155.36399  17.9%     -    0s
     0     0  158.20253    0   41  189.16148  158.20253  16.4%     -    0s
     0     0  158.20253    0   42  189.16148  158.20253  16.4%     -    0s
     0     0  159.26928    0   81  189.16148  159.26928  15.8%     -    0s
H    0     0                     188.4227500  159.26928  15.5%     -    0s
     0     0  159.59889    0   67  188.42275  159.59889  15.3%     -    0s
     0     0  159.59889    0   67  188.42275  159.59889  15.3%     -    0s
     0     0  160.41159    0   69  188.42275  160.41159  14.9%     -    0s
     0     0  160.41159    0   65  188.42275  160.41159  14.9%     -    0s
     0     0  160.43620    0   95  188.42275  160.43620  14.9%     -    0s
     0     0  160.43620    0   79  188.42275  160.43620  14.9%     -    0s
     0     0  160.54219    0   75  188.42275  160.54219  14.8%     -    0s
     0     0  160.54219    0   73  188.42275  160.54219  14.8%     -    0s
H    0     0                     184.5696900  160.54219  13.0%     -    0s
     0     0  160.55575    0   87  184.56969  160.55575  13.0%     -    0s
     0     0  160.55575    0   91  184.56969  160.55575  13.0%     -    0s
     0     0  161.29267    0   88  184.56969  161.29267  12.6%     -    0s
     0     0  161.54597    0   74  184.56969  161.54597  12.5%     -    0s
     0     0  161.62281    0   85  184.56969  161.62281  12.4%     -    0s
     0     0  161.62282    0   85  184.56969  161.62282  12.4%     -    0s
     0     0  163.34481    0   47  184.56969  163.34481  11.5%     -    0s
     0     0  164.72017    0   93  184.56969  164.72017  10.8%     -    0s
     0     0  164.89119    0   91  184.56969  164.89119  10.7%     -    0s
     0     0  164.97140    0   97  184.56969  164.97140  10.6%     -    0s
     0     0  165.04708    0   48  184.56969  165.04708  10.6%     -    0s
     0     0  165.04708    0   48  184.56969  165.04708  10.6%     -    0s
     0     0  165.04776    0   55  184.56969  165.04776  10.6%     -    0s
     0     0  165.11835    0  102  184.56969  165.11835  10.5%     -    0s
     0     0  165.11835    0   92  184.56969  165.11835  10.5%     -    0s
     0     0  165.11835    0   52  184.56969  165.11835  10.5%     -    0s
     0     0  165.11835    0   66  184.56969  165.11835  10.5%     -    0s
     0     0  165.11835    0   93  184.56969  165.11835  10.5%     -    0s
     0     0  165.11835    0   81  184.56969  165.11835  10.5%     -    0s
     0     0  165.11835    0   99  184.56969  165.11835  10.5%     -    0s
     0     0  165.11835    0  101  184.56969  165.11835  10.5%     -    0s
     0     0  165.19813    0  123  184.56969  165.19813  10.5%     -    0s
H    0     0                     184.2187200  165.19813  10.3%     -    0s
     0     0  165.23376    0   73  184.21872  165.23376  10.3%     -    0s
     0     0  165.26165    0   85  184.21872  165.26165  10.3%     -    0s
     0     0  165.29332    0   75  184.21872  165.29332  10.3%     -    0s
     0     0  165.31285    0   70  184.21872  165.31285  10.3%     -    0s
     0     0  165.31285    0   70  184.21872  165.31285  10.3%     -    0s
     0     0  165.31285    0   70  184.21872  165.31285  10.3%     -    0s
     0     2  165.31285    0   69  184.21872  165.31285  10.3%     -    0s
*  305    68              12     182.9951100  169.13048  7.58%  14.0    0s

Cutting planes:
  Learned: 1
  Gomory: 1
  Cover: 3
  Implied bound: 1
  MIR: 34
  StrongCG: 5
  Flow cover: 20
  Network: 2

Explored 855 nodes (11648 simplex iterations) in 0.64 seconds
Thread count was 8 (of 8 available processors)

Solution count 7: 182.995 184.219 184.57 ... 359.132

Optimal solution found (tolerance 1.00e-03)
Best objective 1.829951100000e+02, best bound 1.829951100000e+02, gap 0.0000%

Gurobi 8.1.1 (mac64, Python) logging started Tue Nov 23 19:44:47 2021

Academic license - for non-commercial use only
Changed value of parameter MIPGap to 0.001
   Prev: 0.0001  Min: 0.0  Max: 1e+100  Default: 0.0001
Optimize a model with 1691 rows, 2670 columns and 4572 nonzeros
Variable types: 36 continuous, 2634 integer (1312 binary)
Coefficient statistics:
  Matrix range     [1e-01, 1e+03]
  Objective range  [8e+00, 1e+02]
  Bounds range     [1e+00, 1e+00]
  RHS range        [1e-03, 2e+03]
Presolve removed 1178 rows and 2308 columns
Presolve time: 0.00s
Presolved: 513 rows, 362 columns, 2420 nonzeros
Variable types: 32 continuous, 330 integer (160 binary)

Root relaxation: objective 1.321048e+02, 248 iterations, 0.00 seconds

    Nodes    |    Current Node    |     Objective Bounds      |     Work
 Expl Unexpl |  Obj  Depth IntInf | Incumbent    BestBd   Gap | It/Node Time

     0     0  132.10484    0   56          -  132.10484      -     -    0s
H    0     0                     359.1316900  132.10484  63.2%     -    0s
     0     0  140.13601    0   57  359.13169  140.13601  61.0%     -    0s
H    0     0                     192.5894500  140.13601  27.2%     -    0s
H    0     0                     189.1614800  140.13601  25.9%     -    0s
     0     0  151.01119    0   68  189.16148  151.01119  20.2%     -    0s
     0     0  151.01339    0   69  189.16148  151.01339  20.2%     -    0s
     0     0  155.36399    0   63  189.16148  155.36399  17.9%     -    0s
     0     0  158.20253    0   41  189.16148  158.20253  16.4%     -    0s
     0     0  158.20253    0   42  189.16148  158.20253  16.4%     -    0s
     0     0  159.26928    0   81  189.16148  159.26928  15.8%     -    0s
H    0     0                     188.4227500  159.26928  15.5%     -    0s
     0     0  159.59889    0   67  188.42275  159.59889  15.3%     -    0s
     0     0  159.59889    0   67  188.42275  159.59889  15.3%     -    0s
     0     0  160.41159    0   69  188.42275  160.41159  14.9%     -    0s
     0     0  160.41159    0   65  188.42275  160.41159  14.9%     -    0s
     0     0  160.43620    0   95  188.42275  160.43620  14.9%     -    0s
     0     0  160.43620    0   79  188.42275  160.43620  14.9%     -    0s
     0     0  160.54219    0   75  188.42275  160.54219  14.8%     -    0s
     0     0  160.54219    0   73  188.42275  160.54219  14.8%     -    0s
H    0     0                     184.5696900  160.54219  13.0%     -    0s
     0     0  160.55575    0   87  184.56969  160.55575  13.0%     -    0s
     0     0  160.55575    0   91  184.56969  160.55575  13.0%     -    0s
     0     0  161.29267    0   88  184.56969  161.29267  12.6%     -    0s
     0     0  161.54597    0   74  184.56969  161.54597  12.5%     -    0s
     0     0  161.62281    0   85  184.56969  161.62281  12.4%     -    0s
     0     0  161.62282    0   85  184.56969  161.62282  12.4%     -    0s
     0     0  163.34481    0   47  184.56969  163.34481  11.5%     -    0s
     0     0  164.72017    0   93  184.56969  164.72017  10.8%     -    0s
     0     0  164.89119    0   91  184.56969  164.89119  10.7%     -    0s
     0     0  164.97140    0   97  184.56969  164.97140  10.6%     -    0s
     0     0  165.04708    0   48  184.56969  165.04708  10.6%     -    0s
     0     0  165.04708    0   48  184.56969  165.04708  10.6%     -    0s
     0     0  165.04776    0   55  184.56969  165.04776  10.6%     -    0s
     0     0  165.11835    0  102  184.56969  165.11835  10.5%     -    0s
     0     0  165.11835    0   92  184.56969  165.11835  10.5%     -    0s
     0     0  165.11835    0   52  184.56969  165.11835  10.5%     -    0s
     0     0  165.11835    0   66  184.56969  165.11835  10.5%     -    0s
     0     0  165.11835    0   93  184.56969  165.11835  10.5%     -    0s
     0     0  165.11835    0   81  184.56969  165.11835  10.5%     -    0s
     0     0  165.11835    0   99  184.56969  165.11835  10.5%     -    0s
     0     0  165.11835    0  101  184.56969  165.11835  10.5%     -    0s
     0     0  165.19813    0  123  184.56969  165.19813  10.5%     -    0s
H    0     0                     184.2187200  165.19813  10.3%     -    0s
     0     0  165.23376    0   73  184.21872  165.23376  10.3%     -    0s
     0     0  165.26165    0   85  184.21872  165.26165  10.3%     -    0s
     0     0  165.29332    0   75  184.21872  165.29332  10.3%     -    0s
     0     0  165.31285    0   70  184.21872  165.31285  10.3%     -    0s
     0     0  165.31285    0   70  184.21872  165.31285  10.3%     -    0s
     0     0  165.31285    0   70  184.21872  165.31285  10.3%     -    0s
     0     2  165.31285    0   69  184.21872  165.31285  10.3%     -    0s
*  305    68              12     182.9951100  169.13048  7.58%  14.0    0s

Cutting planes:
  Learned: 1
  Gomory: 1
  Cover: 3
  Implied bound: 1
  MIR: 34
  StrongCG: 5
  Flow cover: 20
  Network: 2

Explored 855 nodes (11648 simplex iterations) in 0.61 seconds
Thread count was 8 (of 8 available processors)

Solution count 7: 182.995 184.219 184.57 ... 359.132

Optimal solution found (tolerance 1.00e-03)
Best objective 1.829951100000e+02, best bound 1.829951100000e+02, gap 0.0000%

Gurobi 8.1.1 (mac64, Python) logging started Tue Nov 23 19:45:09 2021

Academic license - for non-commercial use only
Changed value of parameter MIPGap to 0.001
   Prev: 0.0001  Min: 0.0  Max: 1e+100  Default: 0.0001
Optimize a model with 1691 rows, 2670 columns and 4572 nonzeros
Variable types: 36 continuous, 2634 integer (1312 binary)
Coefficient statistics:
  Matrix range     [1e-01, 1e+03]
  Objective range  [8e+00, 1e+02]
  Bounds range     [1e+00, 1e+00]
  RHS range        [1e-03, 2e+03]
Presolve removed 1178 rows and 2308 columns
Presolve time: 0.00s
Presolved: 513 rows, 362 columns, 2420 nonzeros
Variable types: 32 continuous, 330 integer (160 binary)

Root relaxation: objective 1.321048e+02, 248 iterations, 0.00 seconds

    Nodes    |    Current Node    |     Objective Bounds      |     Work
 Expl Unexpl |  Obj  Depth IntInf | Incumbent    BestBd   Gap | It/Node Time

     0     0  132.10484    0   56          -  132.10484      -     -    0s
H    0     0                     359.1316900  132.10484  63.2%     -    0s
     0     0  140.13601    0   57  359.13169  140.13601  61.0%     -    0s
H    0     0                     192.5894500  140.13601  27.2%     -    0s
H    0     0                     189.1614800  140.13601  25.9%     -    0s
     0     0  151.01119    0   68  189.16148  151.01119  20.2%     -    0s
     0     0  151.01339    0   69  189.16148  151.01339  20.2%     -    0s
     0     0  155.36399    0   63  189.16148  155.36399  17.9%     -    0s
     0     0  158.20253    0   41  189.16148  158.20253  16.4%     -    0s
     0     0  158.20253    0   42  189.16148  158.20253  16.4%     -    0s
     0     0  159.26928    0   81  189.16148  159.26928  15.8%     -    0s
H    0     0                     188.4227500  159.26928  15.5%     -    0s
     0     0  159.59889    0   67  188.42275  159.59889  15.3%     -    0s
     0     0  159.59889    0   67  188.42275  159.59889  15.3%     -    0s
     0     0  160.41159    0   69  188.42275  160.41159  14.9%     -    0s
     0     0  160.41159    0   65  188.42275  160.41159  14.9%     -    0s
     0     0  160.43620    0   95  188.42275  160.43620  14.9%     -    0s
     0     0  160.43620    0   79  188.42275  160.43620  14.9%     -    0s
     0     0  160.54219    0   75  188.42275  160.54219  14.8%     -    0s
     0     0  160.54219    0   73  188.42275  160.54219  14.8%     -    0s
H    0     0                     184.5696900  160.54219  13.0%     -    0s
     0     0  160.55575    0   87  184.56969  160.55575  13.0%     -    0s
     0     0  160.55575    0   91  184.56969  160.55575  13.0%     -    0s
     0     0  161.29267    0   88  184.56969  161.29267  12.6%     -    0s
     0     0  161.54597    0   74  184.56969  161.54597  12.5%     -    0s
     0     0  161.62281    0   85  184.56969  161.62281  12.4%     -    0s
     0     0  161.62282    0   85  184.56969  161.62282  12.4%     -    0s
     0     0  163.34481    0   47  184.56969  163.34481  11.5%     -    0s
     0     0  164.72017    0   93  184.56969  164.72017  10.8%     -    0s
     0     0  164.89119    0   91  184.56969  164.89119  10.7%     -    0s
     0     0  164.97140    0   97  184.56969  164.97140  10.6%     -    0s
     0     0  165.04708    0   48  184.56969  165.04708  10.6%     -    0s
     0     0  165.04708    0   48  184.56969  165.04708  10.6%     -    0s
     0     0  165.04776    0   55  184.56969  165.04776  10.6%     -    0s
     0     0  165.11835    0  102  184.56969  165.11835  10.5%     -    0s
     0     0  165.11835    0   92  184.56969  165.11835  10.5%     -    0s
     0     0  165.11835    0   52  184.56969  165.11835  10.5%     -    0s
     0     0  165.11835    0   66  184.56969  165.11835  10.5%     -    0s
     0     0  165.11835    0   93  184.56969  165.11835  10.5%     -    0s
     0     0  165.11835    0   81  184.56969  165.11835  10.5%     -    0s
     0     0  165.11835    0   99  184.56969  165.11835  10.5%     -    0s
     0     0  165.11835    0  101  184.56969  165.11835  10.5%     -    0s
     0     0  165.19813    0  123  184.56969  165.19813  10.5%     -    0s
H    0     0                     184.2187200  165.19813  10.3%     -    0s
     0     0  165.23376    0   73  184.21872  165.23376  10.3%     -    0s
     0     0  165.26165    0   85  184.21872  165.26165  10.3%     -    0s
     0     0  165.29332    0   75  184.21872  165.29332  10.3%     -    0s
     0     0  165.31285    0   70  184.21872  165.31285  10.3%     -    0s
     0     0  165.31285    0   70  184.21872  165.31285  10.3%     -    0s
     0     0  165.31285    0   70  184.21872  165.31285  10.3%     -    0s
     0     2  165.31285    0   69  184.21872  165.31285  10.3%     -    0s
*  305    68              12     182.9951100  169.13048  7.58%  14.0    0s

Cutting planes:
  Learned: 1
  Gomory: 1
  Cover: 3
  Implied bound: 1
  MIR: 34
  StrongCG: 5
  Flow cover: 20
  Network: 2

Explored 855 nodes (11648 simplex iterations) in 0.60 seconds
Thread count was 8 (of 8 available processors)

Solution count 7: 182.995 184.219 184.57 ... 359.132

Optimal solution found (tolerance 1.00e-03)
Best objective 1.829951100000e+02, best bound 1.829951100000e+02, gap 0.0000%
